100
    1     5     5
    2     6     6
    3    46    46
    4    42    42
    5    46    46
    6    36    36
    7    27    27
    8    32    32
    9     8     8
   10    17    17
   11    15    15
   12    41    41
   13    31    31
   14    19    19
   15    45    45
   16    15    15
   17    43    43
   18    12    12
   19    22    22
   20    42    42
   21    45    45
   22    41    41
   23    29    29
   24     9     9
   25    46    46
   26    41    41
   27     6     6
   28    50    50
   29    28    28
   30    41    41
   31    28    28
   32    44    44
   33    45    45
   34    24    24
   35    38    38
   36    34    34
   37    11    11
   38    32    32
   39    40    40
   40    39    39
   41    27    27
   42    39    39
   43    11    11
   44    35    35
   45     6     6
   46    42    42
   47    14    14
   48     8     8
   49     6     6
   50    35    35
   51    36    36
   52     2     2
   53    28    28
   54    40    40
   55    45    45
   56     5     5
   57     5     5
   58    36    36
   59    37    37
   60    20    20
   61    33    33
   62    35    35
   63     7     7
   64    28    28
   65     7     7
   66     4     4
   67    39    39
   68    45    45
   69    50    50
   70     7     7
   71    37    37
   72    11    11
   73    12    12
   74    15    15
   75    30    30
   76     1     1
   77     6     6
   78    10    10
   79     6     6
   80     5     5
   81     1     1
   82    28    28
   83    27    27
   84    29    29
   85    40    40
   86    21    21
   87    23    23
   88    39    39
   89    39    39
   90    20    20
   91     8     8
   92    11    11
   93     9     9
   94    16    16
   95    29    29
   96     6     6
   97    19    19
   98    28    28
   99     2     2
  100     1     1
2068
